Investment_problem.sol
# Solution for model basic_model
# Objective value = 68902.5
X1 112500
X2 75000
X3 187500
X4 187500
X5 0
X6 187500
